
List of user-set options:

                                    Name   Value                used
                   hessian_approximation = limited-memory        yes
                           linear_solver = ma57                  yes
                  ma57_automatic_scaling = yes                   yes
                                max_iter = 100                   yes
                             mu_strategy = adaptive              yes
                             output_file = SPARTAN-CombinedIPOPTinfo.txt  yes
                             print_level = 5                     yes
                      print_user_options = yes                   yes
                                     tol = 1e-007                yes
This is Ipopt version 3.11.0, running with linear solver ma57.

Number of nonzeros in equality constraint Jacobian...:    61372
Number of nonzeros in inequality constraint Jacobian.:     5731
Number of nonzeros in Lagrangian Hessian.............:        0

Total number of variables............................:     4219
                     variables with only lower bounds:        0
                variables with lower and upper bounds:     4219
                     variables with only upper bounds:        0
Total number of equality constraints.................:     3500
Total number of inequality constraints...............:      470
        inequality constraints with only lower bounds:        0
   inequality constraints with lower and upper bounds:      395
        inequality constraints with only upper bounds:       75

iter    objective    inf_pr   inf_du lg(mu)  ||d||  lg(rg) alpha_du alpha_pr  ls
   0 -1.5869988e+002 1.35e+000 1.00e+002   0.0 0.00e+000    -  0.00e+000 0.00e+000   0
   1 -1.5758374e+002 1.13e+000 8.31e+001  -0.8 2.21e+000    -  5.98e-001 1.66e-001f  1
   2 -1.5278650e+002 6.61e-001 4.71e+001  -1.0 1.80e+000    -  7.34e-001 4.18e-001f  1
   3 -1.4547444e+002 3.52e-001 8.87e+001  -1.2 2.52e+000    -  6.87e-001 4.72e-001h  1
   4 -1.4205795e+002 9.65e-002 8.67e+001  -1.6 1.86e+000    -  9.22e-001 7.31e-001h  1
   5 -1.4251665e+002 5.86e-002 1.01e+002  -1.8 2.76e+000    -  1.00e+000 3.85e-001H  1
   6 -1.4565424e+002 2.74e-002 1.62e+001  -2.2 3.37e+000    -  1.00e+000 4.95e-001h  2
   7 -1.4419362e+002 2.68e-002 2.75e+002  -1.8 8.98e+000    -  6.05e-003 3.07e-002H  1
   8 -1.4288368e+002 3.04e-001 9.58e+001  -1.8 1.14e+001    -  4.90e-001 6.46e-001f  1
   9 -1.4246558e+002 2.12e-001 1.15e+002  -2.0 6.85e+000    -  5.46e-002 3.25e-001h  1
iter    objective    inf_pr   inf_du lg(mu)  ||d||  lg(rg) alpha_du alpha_pr  ls
  10 -1.4437919e+002 1.78e-001 9.59e+001  -2.0 1.03e+001    -  1.45e-001 1.67e-001h  1
  11 -1.4649962e+002 1.32e-001 1.18e+002  -2.0 9.88e+000    -  1.91e-001 6.69e-001h  1
  12 -1.4781725e+002 2.05e-002 2.98e+002  -2.0 3.23e+000    -  4.13e-001 8.45e-001h  1
  13 -1.5196657e+002 2.07e-003 4.91e+002  -2.3 2.68e+000    -  6.76e-001 9.37e-001h  1
  14 -1.5329168e+002 7.42e-004 8.84e+002  -2.3 2.66e+000    -  7.97e-001 1.00e+000h  1
  15 -1.5450978e+002 3.13e-003 1.69e+002  -2.3 1.59e+000    -  9.12e-001 1.00e+000h  1
  16 -1.5733436e+002 6.09e-003 1.50e+002  -2.6 3.10e+000    -  1.00e+000 8.01e-001h  1
  17 -1.6004319e+002 6.72e+000 2.50e+001  -2.9 4.79e+000    -  1.00e+000 9.47e-001h  1
  18 -1.6055675e+002 5.27e-003 4.45e+001  -2.9 1.70e+000    -  9.21e-001 8.38e-001h  1
  19 -1.6232092e+002 7.68e-003 1.16e+002  -3.3 2.33e+000    -  7.37e-001 8.47e-001h  1
iter    objective    inf_pr   inf_du lg(mu)  ||d||  lg(rg) alpha_du alpha_pr  ls
  20 -1.6162408e+002 2.30e-003 3.40e+001  -2.9 1.57e+000    -  1.00e+000 9.60e-001h  1
  21 -1.6254614e+002 1.98e-003 1.40e+001  -3.6 2.48e+000    -  1.00e+000 4.03e-001h  1
  22 -1.6337086e+002 1.05e+001 7.73e+001  -3.2 8.44e+000    -  7.07e-001 3.83e-001h  1
  23 -1.6306846e+002 2.75e-002 1.11e+002  -2.9 3.36e+000    -  2.79e-001 2.16e-001H  1
  24 -1.6212266e+002 1.39e-002 2.47e+002  -2.8 6.38e+000    -  1.00e+000 5.36e-001h  1
  25 -1.6181176e+002 9.28e-003 1.35e+001  -2.9 1.50e+000    -  1.00e+000 1.00e+000h  1
  26 -1.6264417e+002 2.46e-002 1.02e+001  -3.0 1.29e+000    -  1.00e+000 9.88e-001h  1
  27 -1.6300641e+002 1.34e-002 5.29e+001  -3.3 1.56e+000    -  1.00e+000 4.63e-001h  2
  28 -1.6365653e+002 2.26e-002 1.05e+001  -3.3 1.86e+000    -  1.00e+000 9.45e-001h  1
  29 -1.6357679e+002 1.27e-002 9.16e+001  -3.4 1.96e+000    -  1.00e+000 4.22e-001H  1
iter    objective    inf_pr   inf_du lg(mu)  ||d||  lg(rg) alpha_du alpha_pr  ls
  30 -1.6372058e+002 2.14e-002 1.72e+001  -3.2 1.24e+000    -  8.86e-001 8.52e-001h  1
  31 -1.6185280e+002 3.18e-002 8.51e+000  -2.9 3.33e+000    -  1.00e+000 1.00e+000h  1
  32 -1.6266300e+002 5.39e-003 5.00e+001  -2.9 4.39e+000    -  8.25e-001 1.00e+000h  1
  33 -1.6256866e+002 3.50e-003 8.12e+000  -2.9 1.59e+000    -  1.00e+000 1.00e+000h  1
  34 -1.6385397e+002 2.39e-002 2.74e+001  -3.3 1.48e+000    -  1.00e+000 1.00e+000h  1
  35 -1.6422210e+002 1.73e-002 3.51e+001  -9.3 3.28e+000    -  5.77e-001 2.79e-001h  1
  36 -1.6358726e+002 2.76e-002 2.51e+002  -3.4 1.37e+000    -  8.26e-001 1.00e+000h  1
  37 -1.6435499e+002 2.17e-002 2.87e+001  -3.5 2.27e+000    -  8.87e-001 1.00e+000h  1
  38 -1.6334353e+002 2.84e-002 5.98e+001  -3.3 2.50e+000    -  5.95e-001 1.00e+000h  1
  39 -1.6436825e+002 2.11e-002 7.13e+000  -3.5 2.38e+000    -  1.00e+000 1.00e+000h  1
iter    objective    inf_pr   inf_du lg(mu)  ||d||  lg(rg) alpha_du alpha_pr  ls
  40 -1.6434207e+002 2.13e-002 9.85e+001  -3.2 2.91e+000    -  1.94e-002 2.85e-002H  1
  41 -1.6393952e+002 2.72e-002 5.45e+000  -3.5 1.99e+000    -  1.00e+000 1.00e+000h  1
  42 -1.6469942e+002 2.07e-002 6.91e+000  -3.8 2.53e+000    -  1.00e+000 9.96e-001h  1
  43 -1.6450481e+002 2.57e-002 4.04e+001  -3.5 1.98e+000    -  3.63e-001 1.00e+000h  1
  44 -1.6426745e+002 1.48e-002 1.42e+001  -3.3 9.35e-001    -  6.52e-001 6.76e-001h  1
  45 -1.6396912e+002 2.75e-002 2.65e+000  -3.5 1.24e+000    -  1.00e+000 1.00e+000h  1
  46 -1.6470626e+002 2.09e-002 1.46e+001  -3.9 2.28e+000    -  1.00e+000 9.98e-001h  1
  47 -1.6402902e+002 2.73e-002 1.24e+000  -3.6 1.91e+000    -  1.00e+000 1.00e+000h  1
  48 -1.6437854e+002 1.13e-002 9.17e+000  -3.7 1.35e+000    -  5.49e-001 5.14e-001h  1
  49 -1.6376896e+002 2.76e-002 1.01e+000  -3.4 9.77e-001    -  1.00e+000 1.00e+000h  1
iter    objective    inf_pr   inf_du lg(mu)  ||d||  lg(rg) alpha_du alpha_pr  ls
  50 -1.6467686e+002 2.05e-002 3.18e+000  -3.8 2.20e+000    -  1.00e+000 1.00e+000h  1
  51 -1.6447171e+002 9.71e-002 7.28e+000  -3.9 1.82e+000    -  6.55e-001 5.77e-001h  1
  52 -1.6404357e+002 2.65e-002 4.76e+000  -3.6 7.02e-001    -  9.44e-001 1.00e+000h  1
  53 -1.6480661e+002 1.94e-002 5.86e+000  -4.0 2.18e+000    -  1.00e+000 9.76e-001h  1
  54 -1.6463403e+002 1.64e-002 9.48e+000  -4.0 2.00e+000    -  5.20e-001 6.13e-001h  1
  55 -1.6484179e+002 2.18e-002 1.34e+000  -4.2 5.67e-001    -  1.00e+000 1.00e+000h  1
  56 -1.6473396e+002 1.56e-002 1.08e+002  -4.2 1.20e+000    -  1.00e+000 2.87e-001h  1
  57 -1.6485513e+002 2.07e-002 8.69e+001  -4.2 1.33e+000    -  8.52e-001 5.57e-001H  1
  58 -1.6483998e+002 1.81e-002 1.08e+002  -4.2 3.05e+000    -  6.62e-001 1.24e-001h  2
  59 -1.6462330e+002 9.36e-003 6.85e+001  -3.7 2.29e+000    -  3.69e-001 4.84e-001h  1
iter    objective    inf_pr   inf_du lg(mu)  ||d||  lg(rg) alpha_du alpha_pr  ls
  60 -1.6480247e+002 2.16e-002 2.96e+001  -4.1 1.51e+000    -  8.18e-001 1.00e+000H  1
  61 -1.6476837e+002 1.18e-002 5.69e+000  -4.1 2.01e+000    -  6.11e-001 4.56e-001h  1
  62 -1.6454430e+002 3.14e-003 2.92e+001  -4.1 7.61e-001    -  1.00e+000 7.33e-001h  1
  63 -1.6451486e+002 1.37e-003 4.71e+001  -4.1 9.15e-001    -  1.00e+000 5.63e-001h  1
  64 -1.6445227e+002 5.99e-004 6.27e-001  -4.1 4.46e-001    -  1.00e+000 1.00e+000h  1
  65 -1.6452102e+002 2.79e-002 3.66e+000  -4.1 7.28e-001    -  9.94e-001 9.88e-001h  1
  66 -1.6441769e+002 1.94e-002 9.03e+001  -4.2 1.30e+000    -  1.00e+000 2.94e-001h  1
  67 -1.6468847e+002 8.42e-003 8.17e+001  -4.2 6.08e+000    -  1.50e-001 1.11e-001h  1
  68 -1.6450843e+002 2.87e-002 2.54e+001  -4.2 2.19e-001    -  4.40e-001 1.00e+000h  1
  69 -1.6448728e+002 2.74e-002 4.33e+001  -3.8 1.38e+000    -  8.10e-001 4.41e-002h  3
iter    objective    inf_pr   inf_du lg(mu)  ||d||  lg(rg) alpha_du alpha_pr  ls
  70 -1.6448118e+002 2.64e-002 7.90e+001  -4.4 2.05e+000    -  6.30e-001 3.72e-002h  3
  71 -1.6425398e+002 1.30e-002 4.23e+001  -3.8 3.44e+000    -  4.50e-001 6.17e-001h  1
  72 -1.6439491e+002 8.55e-003 4.36e+001  -4.0 2.26e+000    -  6.45e-001 3.41e-001h  1
  73 -1.6447273e+002 6.34e-001 1.94e+001  -4.0 1.58e+000    -  3.58e-001 4.51e-001h  1
  74 -1.6449235e+002 2.58e-002 8.90e+000  -4.0 8.67e-001    -  8.77e-001 1.00e+000f  1
  75 -1.6448217e+002 2.47e-002 6.80e+001  -4.0 2.24e+000    -  8.24e-001 3.98e-002h  1
  76 -1.6447139e+002 2.09e-002 6.80e+001  -4.0 3.02e+000    -  6.72e-001 1.57e-001h  3
  77 -1.6431434e+002 8.37e-003 1.60e+001  -4.0 2.55e+000    -  4.49e-001 5.99e-001H  1
  78 -1.6430948e+002 2.31e-002 7.82e+001  -4.0 2.06e+000    -  1.00e+000 9.69e-002h  3
  79 -1.6432878e+002 2.23e-002 7.83e+001  -4.0 1.24e+001    -  3.74e-001 3.44e-002h  3
iter    objective    inf_pr   inf_du lg(mu)  ||d||  lg(rg) alpha_du alpha_pr  ls
  80 -1.6432242e+002 1.93e-002 7.12e+001  -4.0 2.63e+000    -  5.55e-001 1.34e-001h  3
  81 -1.6412676e+002 2.28e-002 8.09e-001  -4.0 3.96e-001    -  9.76e-001 1.00e+000h  1
  82 -1.6420234e+002 1.44e-002 4.45e+001  -4.0 2.41e+000    -  8.96e-001 3.69e-001h  2
  83 -1.6422228e+002 1.48e-002 4.67e+001  -4.0 4.28e-001    -  1.00e+000 4.44e-001h  1
  84 -1.6429732e+002 2.30e-002 8.41e-001  -4.0 8.62e-001    -  1.00e+000 1.00e+000H  1
  85 -1.6426338e+002 1.73e-002 6.07e+001  -4.0 1.96e+000    -  1.00e+000 2.50e-001h  3
  86 -1.6423500e+002 8.24e-003 3.85e+001  -4.0 1.52e+000    -  1.00e+000 5.22e-001h  1
  87 -1.6414562e+002 2.30e-002 2.55e-001  -4.0 5.73e-001    -  1.00e+000 1.00e+000h  1
  88 -1.6424335e+002 1.15e-002 3.89e+001  -4.0 1.89e+000    -  9.94e-001 5.00e-001h  2
  89 -1.6421956e+002 2.18e-002 4.16e+000  -4.0 5.40e-001    -  1.00e+000 9.47e-001h  1
iter    objective    inf_pr   inf_du lg(mu)  ||d||  lg(rg) alpha_du alpha_pr  ls
  90 -1.6417938e+002 2.06e-002 2.01e+001  -4.0 5.68e-001    -  7.48e-001 5.00e-001h  2
  91 -1.6412025e+002 2.31e-002 9.00e-001  -4.0 1.25e+000    -  1.00e+000 1.00e+000H  1
  92 -1.6428361e+002 1.26e-002 2.37e+001  -4.0 1.94e+000    -  8.87e-001 5.61e-001h  1
  93 -1.6432795e+002 2.36e-002 3.64e+001  -4.0 9.69e-001    -  6.95e-001 1.00e+000H  1
  94 -1.6426603e+002 2.32e-002 3.07e+001  -4.0 1.89e+000    -  1.00e+000 7.13e-001H  1
  95 -1.6422114e+002 1.34e-002 3.32e+001  -4.0 7.33e-001    -  8.28e-001 4.21e-001h  2
  96 -1.6432462e+002 2.26e-002 4.04e+001  -4.0 4.28e-001    -  5.92e-001 1.00e+000H  1
  97 -1.6432429e+002 2.26e-002 6.57e+001  -4.0 1.62e+000    -  1.00e+000 2.40e-003h  9
  98 -1.6432425e+002 2.26e-002 6.57e+001  -4.0 2.27e+000    -  7.00e-001 4.81e-004h 12
  99 -1.6432440e+002 2.19e-002 6.37e+001  -4.0 2.42e+000    -  3.66e-001 3.10e-002h  5
iter    objective    inf_pr   inf_du lg(mu)  ||d||  lg(rg) alpha_du alpha_pr  ls
 100 -1.6432427e+002 2.19e-002 6.57e+001  -4.0 1.75e+000    -  1.00e+000 8.91e-004h 11

Number of Iterations....: 100

                                   (scaled)                 (unscaled)
Objective...............: -1.4346451384425588e+001  -1.6432426709337318e+002
Dual infeasibility......:  6.5724951230773371e+001   7.5281365066131684e+002
Constraint violation....:  2.1852112246505725e-002   2.1852112246505725e-002
Complementarity.........:  2.2933817310853816e-004   2.6268396415789035e-003
Overall NLP error.......:  6.5724951230773371e+001   7.5281365066131684e+002


Number of objective function evaluations             = 202
Number of objective gradient evaluations             = 101
Number of equality constraint evaluations            = 202
Number of inequality constraint evaluations          = 202
Number of equality constraint Jacobian evaluations   = 101
Number of inequality constraint Jacobian evaluations = 101
Number of Lagrangian Hessian evaluations             = 0
Total CPU secs in IPOPT (w/o function evaluations)   =      6.237
Total CPU secs in NLP function evaluations           =    241.464

EXIT: Maximum Number of Iterations Exceeded.
